1 51 2
-989 -607 -348 -501 -159 -372 -873 -588 -393 -839 -662 -445 -664 -310 -624 -785 -68 -143 -188 -983 -747 -432 -26 -860 -915 -778 -135 -646 -713 -474 -844 -693 -191 -888 -109 -11 -957 -30 -996 -389 -102 -447 -269 -689 -49 -269 -740 -559 -85 -777 0 
-21 -431 -626 -566 -792 -535 -187 -314 -554 -161 -406 -485 -417 -728 -371 -164 -907 -932 -866 -5 -305 -472 -911 -118 -155 -196 -887 -419 -264 -492 -107 -396 -857 -30 -896 -910 -111 -965 -42 -663 -847 -529 -657 -390 -941 -679 -343 -541 -874 -274 0 
771 676 982 375 832 820 175 348 780 336 743 939 748 892 695 435 716 575 644 704 984 919 846 788 951 569 359 888 549 548 349 977 99 889 660 364 176 481 83 96 231 267 802 823 587 601 761 535 521 343 1 
15116 
